(define-sort Feature () Bool)
(declare-const G Feature)
(declare-const A Feature)
(declare-const M Feature)
(declare-const L Feature)
(declare-const C Feature)
(declare-const R Feature)
(declare-const B Feature)
(declare-const N Feature)
(declare-const W Feature)
(declare-const V Feature)
(declare-const Y Feature)
(declare-const P Feature)
(declare-const S Feature)

(assert G)
(assert (and
   (= A G)
   (= M A)
   (= L A)
   (= C G)
   (= R G)
   (= (or B  N  W ) R)
   (not (and B N))
   (not (and B W))
   (not (and N W))
   (= V G)
   (= Y V)
   (= P V)
   (=> S V)
))

(push)
(assert (and G N N))
(check-sat)
(pop)
(push)
(assert (and G W W))
(check-sat)
(pop)
(push)
(assert (and G B B))
(check-sat)
(pop)
(push)
(assert (and G W P))
(check-sat)
(pop)
(push)
(assert (and G (not W) G))
(check-sat)
(pop)
(push)
(assert (and G G G))
(check-sat)
(pop)
(push)
(assert (and G (or S (not W)) G))
(check-sat)
(pop)
(push)
(assert (and G (and W (not S)) G))
(check-sat)
(pop)
(push)
(assert (and N N G))
(check-sat)
(pop)
(push)
(assert (and N N P))
(check-sat)
(pop)
(push)
(assert (and N S P))
(check-sat)
(pop)
(push)
(assert (and N (not S) N))
(check-sat)
(pop)
(push)
(assert (and N N N))
(check-sat)
(pop)
(push)
(assert (and W S P))
(check-sat)
(pop)
(push)
(assert (and W (not S) W))
(check-sat)
(pop)
(push)
(assert (and W W P))
(check-sat)
(pop)
(push)
(assert (and W S S))
(check-sat)
(pop)
(push)
(assert (and W (not S) W))
(check-sat)
(pop)
(push)
(assert (and W W W))
(check-sat)
(pop)
(push)
(assert (and B B P))
(check-sat)
(pop)
(push)
(assert (and B S P))
(check-sat)
(pop)
(push)
(assert (and B (not S) B))
(check-sat)
(pop)
(push)
(assert (and B B B))
(check-sat)
(pop)
(push)
(assert (and B B B))
(check-sat)
(pop)
(push)
(assert (and P B S))
(check-sat)
(pop)
(push)
(assert (and P N S))
(check-sat)
(pop)
(push)
(assert (and P (or W (not S)) P))
(check-sat)
(pop)
(push)
(assert (and P P P))
(check-sat)
(pop)
(push)
(assert (and P N N))
(check-sat)
(pop)
(push)
(assert (and P W W))
(check-sat)
(pop)
(push)
(assert (and P B B))
(check-sat)
(pop)
(push)
(assert (and P G G))
(check-sat)
(pop)
(push)
(assert (and S N N))
(check-sat)
(pop)
(push)
(assert (and S W W))
(check-sat)
(pop)
(push)
(assert (and S B B))
(check-sat)
(pop)
(push)
(assert (and S S S))
(check-sat)
(pop)
(push)
(assert (and S W S))
(check-sat)
(pop)
(push)
(assert (and S (not W) S))
(check-sat)
(pop)
(push)
(assert (and S S S))
(check-sat)
(pop)
